language Essence 1.3
letting nnodes be 40
letting nrings be 20
letting capacity be 15
letting demand be 
{{1, 2},
{1, 7},
{1, 8},
{1, 10},
{1, 12},
{1, 16},
{1, 20},
{1, 29},
{1, 33},
{1, 34},
{1, 35},
{1, 38},
{1, 39},
{2, 3},
{2, 4},
{2, 5},
{2, 8},
{2, 9},
{2, 10},
{2, 12},
{2, 13},
{2, 14},
{2, 15},
{2, 22},
{2, 23},
{2, 24},
{2, 26},
{2, 30},
{2, 32},
{2, 33},
{2, 39},
{3, 5},
{3, 6},
{3, 12},
{3, 13},
{3, 16},
{3, 17},
{3, 19},
{3, 20},
{3, 21},
{3, 22},
{3, 25},
{3, 27},
{3, 29},
{3, 30},
{3, 31},
{3, 35},
{3, 36},
{3, 38},
{3, 39},
{4, 7},
{4, 12},
{4, 13},
{4, 16},
{4, 19},
{4, 21},
{4, 24},
{4, 25},
{4, 26},
{4, 27},
{4, 30},
{4, 31},
{4, 32},
{4, 37},
{4, 38},
{4, 39},
{5, 6},
{5, 9},
{5, 10},
{5, 11},
{5, 15},
{5, 20},
{5, 24},
{5, 27},
{5, 28},
{5, 30},
{5, 36},
{5, 40},
{6, 8},
{6, 10},
{6, 13},
{6, 17},
{6, 18},
{6, 21},
{6, 23},
{6, 24},
{6, 26},
{6, 28},
{6, 29},
{6, 31},
{6, 32},
{6, 34},
{6, 36},
{6, 37},
{6, 38},
{6, 39},
{6, 40},
{7, 9},
{7, 11},
{7, 12},
{7, 14},
{7, 17},
{7, 18},
{7, 19},
{7, 22},
{7, 24},
{7, 31},
{7, 32},
{7, 33},
{7, 39},
{8, 9},
{8, 10},
{8, 11},
{8, 12},
{8, 13},
{8, 15},
{8, 16},
{8, 17},
{8, 18},
{8, 19},
{8, 21},
{8, 23},
{8, 26},
{8, 27},
{8, 29},
{8, 30},
{8, 31},
{8, 32},
{8, 34},
{8, 40},
{9, 11},
{9, 14},
{9, 16},
{9, 17},
{9, 18},
{9, 20},
{9, 23},
{9, 24},
{9, 26},
{9, 28},
{9, 29},
{9, 30},
{9, 31},
{9, 32},
{9, 36},
{9, 38},
{10, 11},
{10, 14},
{10, 15},
{10, 16},
{10, 18},
{10, 21},
{10, 22},
{10, 24},
{10, 25},
{10, 28},
{10, 29},
{10, 30},
{10, 31},
{10, 34},
{10, 36},
{10, 37},
{10, 38},
{11, 14},
{11, 18},
{11, 19},
{11, 21},
{11, 24},
{11, 25},
{11, 26},
{11, 31},
{11, 34},
{11, 38},
{11, 39},
{12, 13},
{12, 15},
{12, 16},
{12, 22},
{12, 26},
{12, 27},
{12, 29},
{12, 30},
{12, 32},
{12, 34},
{12, 35},
{12, 38},
{12, 40},
{13, 14},
{13, 19},
{13, 21},
{13, 22},
{13, 24},
{13, 25},
{13, 26},
{13, 27},
{13, 29},
{13, 31},
{13, 32},
{13, 33},
{13, 34},
{13, 35},
{14, 15},
{14, 16},
{14, 17},
{14, 18},
{14, 21},
{14, 22},
{14, 23},
{14, 24},
{14, 26},
{14, 29},
{14, 30},
{14, 33},
{14, 34},
{14, 36},
{14, 38},
{14, 39},
{14, 40},
{15, 18},
{15, 19},
{15, 23},
{15, 25},
{15, 27},
{15, 28},
{15, 29},
{15, 33},
{15, 35},
{15, 36},
{15, 37},
{15, 38},
{15, 40},
{16, 19},
{16, 23},
{16, 24},
{16, 25},
{16, 28},
{16, 30},
{16, 31},
{16, 32},
{16, 37},
{16, 38},
{17, 18},
{17, 19},
{17, 20},
{17, 21},
{17, 23},
{17, 24},
{17, 26},
{17, 27},
{17, 29},
{17, 30},
{17, 35},
{17, 37},
{17, 38},
{17, 39},
{18, 26},
{18, 29},
{18, 30},
{18, 31},
{18, 32},
{18, 33},
{18, 34},
{18, 38},
{18, 39},
{18, 40},
{19, 20},
{19, 22},
{19, 23},
{19, 24},
{19, 25},
{19, 29},
{19, 30},
{19, 31},
{19, 32},
{19, 38},
{19, 40},
{20, 25},
{20, 26},
{20, 27},
{20, 28},
{20, 29},
{20, 30},
{20, 31},
{20, 33},
{20, 36},
{20, 37},
{20, 40},
{21, 22},
{21, 23},
{21, 24},
{21, 25},
{21, 26},
{21, 28},
{21, 29},
{21, 30},
{21, 31},
{21, 32},
{21, 33},
{21, 38},
{21, 39},
{21, 40},
{22, 25},
{22, 28},
{22, 30},
{22, 32},
{22, 37},
{22, 39},
{22, 40},
{23, 28},
{23, 31},
{23, 32},
{23, 33},
{23, 35},
{23, 37},
{23, 40},
{24, 25},
{24, 26},
{24, 31},
{24, 32},
{24, 36},
{24, 38},
{24, 39},
{24, 40},
{25, 26},
{25, 27},
{25, 28},
{25, 29},
{25, 30},
{25, 31},
{25, 34},
{25, 36},
{25, 37},
{25, 39},
{25, 40},
{26, 27},
{26, 28},
{26, 30},
{26, 32},
{26, 34},
{26, 37},
{26, 38},
{26, 40},
{27, 29},
{27, 30},
{27, 32},
{27, 33},
{27, 34},
{27, 37},
{27, 38},
{27, 39},
{27, 40},
{28, 29},
{28, 30},
{28, 31},
{28, 32},
{28, 35},
{28, 37},
{28, 39},
{29, 35},
{29, 36},
{29, 39},
{29, 40},
{30, 32},
{30, 33},
{30, 36},
{30, 39},
{31, 34},
{31, 35},
{31, 36},
{31, 37},
{31, 40},
{32, 33},
{32, 35},
{32, 39},
{32, 40},
{33, 36},
{33, 37},
{33, 40},
{34, 35},
{34, 37},
{34, 38},
{34, 40},
{35, 38},
{35, 40},
{36, 37},
{36, 39},
{36, 40},
{37, 38},
{37, 40},
{38, 39},
{38, 40}}
